Instance: E256-14k.dat
Class:  2
255 --- number of customers (no depot)
47 --- number of vehicles
387 --- number of items
Capacity - height - width of vehicles
  1000     40     20
Node - x - y - demand  Readytime Duetime
  0.00    0.00 -15.00   0.00 0       180.00       
  1.00   -1.00 -14.00 300.00 131.00  136.00       
  2.00    1.00 -14.00 300.00 140.00  145.00       
  3.00   -2.00 -13.00 180.00  80.00   89.00       
  4.00    0.00 -13.00 300.00   7.00   30.00       
  5.00    2.00 -13.00 180.00  35.00   49.00       
  6.00   -3.00 -12.00 128.00 143.00  148.00       
  7.00   -1.00 -12.00 180.00 107.00  125.00       
  8.00    1.00 -12.00 180.00  68.00   79.00       
  9.00    3.00 -12.00 128.00  36.00   46.00       
 10.00   -4.00 -11.00 100.00  56.00   69.00       
 11.00   -2.00 -11.00 128.00  53.00   70.00       
 12.00    0.00 -11.00 180.00  34.00   42.00       
 13.00    2.00 -11.00 128.00  60.00   76.00       
 14.00    4.00 -11.00 100.00 133.00  144.00       
 15.00   -5.00 -10.00  81.00  22.00   30.00       
 16.00   -3.00 -10.00 100.00 117.00  123.00       
 17.00   -1.00 -10.00 128.00  85.00   98.00       
 18.00    1.00 -10.00 128.00   9.00   30.00       
 19.00    3.00 -10.00 100.00  24.00   43.00       
 20.00    5.00 -10.00  81.00 115.00  124.00       
 21.00   -6.00  -9.00  69.00   8.00   30.00       
 22.00   -4.00  -9.00  81.00  68.00   76.00       
 23.00   -2.00  -9.00 100.00  29.00   42.00       
 24.00    0.00  -9.00 128.00 136.00  148.00       
 25.00    2.00  -9.00 100.00  55.00   69.00       
 26.00    4.00  -9.00  81.00 126.00  133.00       
 27.00    6.00  -9.00  69.00  76.00   81.00       
 28.00   -7.00  -8.00  60.00  42.00   50.00       
 29.00   -5.00  -8.00  69.00  45.00   57.00       
 30.00   -3.00  -8.00  81.00 133.00  151.00       
 31.00   -1.00  -8.00 100.00  98.00  105.00       
 32.00    1.00  -8.00 100.00  77.00   91.00       
 33.00    3.00  -8.00  81.00 137.00  151.00       
 34.00    5.00  -8.00  69.00  53.00   61.00       
 35.00    7.00  -8.00  60.00 103.00  118.00       
 36.00   -8.00  -7.00  52.00  27.00   47.00       
 37.00   -6.00  -7.00  60.00  95.00  112.00       
 38.00   -4.00  -7.00  69.00  74.00   91.00       
 39.00   -2.00  -7.00  81.00  33.00   40.00       
 40.00    0.00  -7.00 100.00  93.00   98.00       
 41.00    2.00  -7.00  81.00 106.00  111.00       
 42.00    4.00  -7.00  69.00 111.00  121.00       
 43.00    6.00  -7.00  60.00 109.00  120.00       
 44.00    8.00  -7.00  52.00  18.00   30.00       
 45.00   -9.00  -6.00  47.00  62.00   80.00       
 46.00   -7.00  -6.00  52.00  91.00  101.00       
 47.00   -5.00  -6.00  60.00 140.00  150.00       
 48.00   -3.00  -6.00  69.00  25.00   44.00       
 49.00   -1.00  -6.00  81.00  25.00   40.00       
 50.00    1.00  -6.00  81.00  55.00   73.00       
 51.00    3.00  -6.00  69.00 110.00  117.00       
 52.00    5.00  -6.00  60.00  83.00  101.00       
 53.00    7.00  -6.00  52.00 109.00  117.00       
 54.00    9.00  -6.00  47.00  82.00  100.00       
 55.00  -10.00  -5.00  42.00  68.00   87.00       
 56.00   -8.00  -5.00  47.00  57.00   67.00       
 57.00   -6.00  -5.00  52.00  84.00   94.00       
 58.00   -4.00  -5.00  60.00  79.00   90.00       
 59.00   -2.00  -5.00  69.00  64.00   79.00       
 60.00    0.00  -5.00  81.00 128.00  133.00       
 61.00    2.00  -5.00  69.00  83.00   94.00       
 62.00    4.00  -5.00  60.00  99.00  107.00       
 63.00    6.00  -5.00  52.00  22.00   39.00       
 64.00    8.00  -5.00  47.00  83.00   89.00       
 65.00   10.00  -5.00  42.00  76.00   82.00       
 66.00  -11.00  -4.00  39.00 125.00  138.00       
 67.00   -9.00  -4.00  42.00  78.00   93.00       
 68.00   -7.00  -4.00  47.00  80.00   97.00       
 69.00   -5.00  -4.00  52.00  52.00   58.00       
 70.00   -3.00  -4.00  60.00  48.00   57.00       
 71.00   -1.00  -4.00  69.00  27.00   33.00       
 72.00    1.00  -4.00  69.00  42.00   59.00       
 73.00    3.00  -4.00  60.00  58.00   78.00       
 74.00    5.00  -4.00  52.00  52.00   70.00       
 75.00    7.00  -4.00  47.00  78.00   96.00       
 76.00    9.00  -4.00  42.00  27.00   47.00       
 77.00   11.00  -4.00  39.00  93.00  113.00       
 78.00  -12.00  -3.00  36.00  30.00   40.00       
 79.00  -10.00  -3.00  39.00  96.00  108.00       
 80.00   -8.00  -3.00  42.00  40.00   54.00       
 81.00   -6.00  -3.00  47.00 149.00  154.00       
 82.00   -4.00  -3.00  52.00   6.00   30.00       
 83.00   -2.00  -3.00  60.00  37.00   54.00       
 84.00    0.00  -3.00  69.00  61.00   73.00       
 85.00    2.00  -3.00  60.00 146.00  161.00       
 86.00    4.00  -3.00  52.00  98.00  111.00       
 87.00    6.00  -3.00  47.00  30.00   48.00       
 88.00    8.00  -3.00  42.00  78.00   88.00       
 89.00   10.00  -3.00  39.00 111.00  118.00       
 90.00   12.00  -3.00  36.00  59.00   66.00       
 91.00  -13.00  -2.00  33.00 108.00  124.00       
 92.00  -11.00  -2.00  36.00  84.00  103.00       
 93.00   -9.00  -2.00  39.00  55.00   70.00       
 94.00   -7.00  -2.00  42.00  97.00  105.00       
 95.00   -5.00  -2.00  47.00 131.00  142.00       
 96.00   -3.00  -2.00  52.00  59.00   68.00       
 97.00   -1.00  -2.00  60.00 115.00  124.00       
 98.00    1.00  -2.00  60.00  27.00   38.00       
 99.00    3.00  -2.00  52.00  95.00  111.00       
100.00    5.00  -2.00  47.00 139.00  153.00       
101.00    7.00  -2.00  42.00 129.00  140.00       
102.00    9.00  -2.00  39.00   6.00   30.00       
103.00   11.00  -2.00  36.00  30.00   43.00       
104.00   13.00  -2.00  33.00  28.00   37.00       
105.00  -14.00  -1.00  31.00  96.00  116.00       
106.00  -12.00  -1.00  33.00  52.00   57.00       
107.00  -10.00  -1.00  36.00  58.00   70.00       
108.00   -8.00  -1.00  39.00 124.00  138.00       
109.00   -6.00  -1.00  42.00  93.00  112.00       
110.00   -4.00  -1.00  47.00 118.00  124.00       
111.00   -2.00  -1.00  52.00  90.00  104.00       
112.00    0.00  -1.00  60.00 118.00  129.00       
113.00    2.00  -1.00  52.00 133.00  146.00       
114.00    4.00  -1.00  47.00  40.00   51.00       
115.00    6.00  -1.00  42.00  35.00   43.00       
116.00    8.00  -1.00  39.00  95.00  110.00       
117.00   10.00  -1.00  36.00  60.00   65.00       
118.00   12.00  -1.00  33.00  19.00   30.00       
119.00   14.00  -1.00  31.00  90.00  100.00       
120.00  -15.00   0.00  29.00  79.00   88.00       
121.00  -13.00   0.00  31.00 107.00  112.00       
122.00  -11.00   0.00  33.00 136.00  146.00       
123.00   -9.00   0.00  36.00  70.00   88.00       
124.00   -7.00   0.00  39.00  57.00   76.00       
125.00   -5.00   0.00  42.00 149.00  158.00       
126.00   -3.00   0.00  47.00  94.00  109.00       
127.00   -1.00   0.00  52.00 120.00  127.00       
128.00    1.00   0.00  52.00  83.00   97.00       
129.00    3.00   0.00  47.00  67.00   74.00       
130.00    5.00   0.00  42.00  30.00   39.00       
131.00    7.00   0.00  39.00 150.00  163.00       
132.00    9.00   0.00  36.00  84.00   90.00       
133.00   11.00   0.00  33.00  55.00   70.00       
134.00   13.00   0.00  31.00 130.00  138.00       
135.00   15.00   0.00  29.00  30.00   44.00       
136.00  -14.00   1.00  29.00 134.00  146.00       
137.00  -12.00   1.00  31.00 133.00  138.00       
138.00  -10.00   1.00  33.00 112.00  117.00       
139.00   -8.00   1.00  36.00 127.00  147.00       
140.00   -6.00   1.00  39.00  59.00   68.00       
141.00   -4.00   1.00  42.00  34.00   50.00       
142.00   -2.00   1.00  47.00 109.00  121.00       
143.00    0.00   1.00  52.00  82.00   87.00       
144.00    2.00   1.00  47.00 118.00  136.00       
145.00    4.00   1.00  42.00  38.00   48.00       
146.00    6.00   1.00  39.00  83.00  101.00       
147.00    8.00   1.00  36.00 154.00  163.00       
148.00   10.00   1.00  33.00  25.00   31.00       
149.00   12.00   1.00  31.00  53.00   66.00       
150.00   14.00   1.00  29.00  96.00  102.00       
151.00  -13.00   2.00  29.00 149.00  163.00       
152.00  -11.00   2.00  31.00 118.00  125.00       
153.00   -9.00   2.00  33.00  71.00   78.00       
154.00   -7.00   2.00  36.00  11.00   30.00       
155.00   -5.00   2.00  39.00   8.00   30.00       
156.00   -3.00   2.00  42.00  51.00   60.00       
157.00   -1.00   2.00  47.00 119.00  130.00       
158.00    1.00   2.00  47.00 107.00  121.00       
159.00    3.00   2.00  42.00  23.00   32.00       
160.00    5.00   2.00  39.00 118.00  132.00       
161.00    7.00   2.00  36.00  34.00   54.00       
162.00    9.00   2.00  33.00  15.00   30.00       
163.00   11.00   2.00  31.00 110.00  128.00       
164.00   13.00   2.00  29.00  99.00  104.00       
165.00  -12.00   3.00  29.00  22.00   30.00       
166.00  -10.00   3.00  31.00 149.00  164.00       
167.00   -8.00   3.00  33.00  34.00   50.00       
168.00   -6.00   3.00  36.00  88.00   98.00       
169.00   -4.00   3.00  39.00  84.00   96.00       
170.00   -2.00   3.00  42.00  18.00   30.00       
171.00    0.00   3.00  47.00  27.00   36.00       
172.00    2.00   3.00  42.00  72.00   82.00       
173.00    4.00   3.00  39.00  64.00   81.00       
174.00    6.00   3.00  36.00 105.00  121.00       
175.00    8.00   3.00  33.00  35.00   41.00       
176.00   10.00   3.00  31.00 113.00  126.00       
177.00   12.00   3.00  29.00  57.00   73.00       
178.00  -11.00   4.00  29.00 118.00  138.00       
179.00   -9.00   4.00  31.00  77.00   96.00       
180.00   -7.00   4.00  33.00 109.00  126.00       
181.00   -5.00   4.00  36.00 135.00  146.00       
182.00   -3.00   4.00  39.00  22.00   31.00       
183.00   -1.00   4.00  42.00  43.00   51.00       
184.00    1.00   4.00  42.00 140.00  148.00       
185.00    3.00   4.00  39.00  42.00   60.00       
186.00    5.00   4.00  36.00 127.00  139.00       
187.00    7.00   4.00  33.00   8.00   30.00       
188.00    9.00   4.00  31.00  86.00  101.00       
189.00   11.00   4.00  29.00  74.00   87.00       
190.00  -10.00   5.00  29.00  25.00   34.00       
191.00   -8.00   5.00  31.00  66.00   78.00       
192.00   -6.00   5.00  33.00   5.00   30.00       
193.00   -4.00   5.00  36.00  72.00   78.00       
194.00   -2.00   5.00  39.00  24.00   42.00       
195.00    0.00   5.00  42.00  49.00   67.00       
196.00    2.00   5.00  39.00 129.00  142.00       
197.00    4.00   5.00  36.00  79.00   90.00       
198.00    6.00   5.00  33.00  21.00   39.00       
199.00    8.00   5.00  31.00  94.00  107.00       
200.00   10.00   5.00  29.00  69.00   80.00       
201.00   -9.00   6.00  29.00 103.00  121.00       
202.00   -7.00   6.00  31.00  30.00   40.00       
203.00   -5.00   6.00  33.00  47.00   61.00       
204.00   -3.00   6.00  36.00  13.00   30.00       
205.00   -1.00   6.00  39.00  93.00  107.00       
206.00    1.00   6.00  39.00 101.00  110.00       
207.00    3.00   6.00  36.00 120.00  134.00       
208.00    5.00   6.00  33.00  26.00   38.00       
209.00    7.00   6.00  31.00  26.00   36.00       
210.00    9.00   6.00  29.00   3.00   30.00       
211.00   -8.00   7.00  29.00 128.00  139.00       
212.00   -6.00   7.00  31.00 118.00  138.00       
213.00   -4.00   7.00  33.00  22.00   34.00       
214.00   -2.00   7.00  36.00 115.00  135.00       
215.00    0.00   7.00  39.00  40.00   45.00       
216.00    2.00   7.00  36.00 123.00  143.00       
217.00    4.00   7.00  33.00 116.00  134.00       
218.00    6.00   7.00  31.00 103.00  118.00       
219.00    8.00   7.00  29.00  44.00   56.00       
220.00   -7.00   8.00  29.00 116.00  134.00       
221.00   -5.00   8.00  31.00  12.00   30.00       
222.00   -3.00   8.00  33.00  57.00   67.00       
223.00   -1.00   8.00  36.00  73.00   86.00       
224.00    1.00   8.00  36.00  76.00   96.00       
225.00    3.00   8.00  33.00  41.00   52.00       
226.00    5.00   8.00  31.00  37.00   56.00       
227.00    7.00   8.00  29.00  60.00   79.00       
228.00   -6.00   9.00  29.00  20.00   39.00       
229.00   -4.00   9.00  31.00  65.00   72.00       
230.00   -2.00   9.00  33.00   8.00   30.00       
231.00    0.00   9.00  36.00 151.00  156.00       
232.00    2.00   9.00  33.00  13.00   30.00       
233.00    4.00   9.00  31.00  71.00   91.00       
234.00    6.00   9.00  29.00 145.00  152.00       
235.00   -5.00  10.00  29.00 138.00  148.00       
236.00   -3.00  10.00  31.00  54.00   68.00       
237.00   -1.00  10.00  33.00  60.00   65.00       
238.00    1.00  10.00  33.00  89.00  106.00       
239.00    3.00  10.00  31.00 118.00  130.00       
240.00    5.00  10.00  29.00 122.00  139.00       
241.00   -4.00  11.00  29.00  73.00   79.00       
242.00   -2.00  11.00  31.00  81.00   90.00       
243.00    0.00  11.00  33.00  38.00   45.00       
244.00    2.00  11.00  31.00 137.00  142.00       
245.00    4.00  11.00  29.00  62.00   74.00       
246.00   -3.00  12.00  29.00  34.00   44.00       
247.00   -1.00  12.00  31.00  13.00   33.00       
248.00    1.00  12.00  31.00 127.00  133.00       
249.00    3.00  12.00  29.00 118.00  124.00       
250.00   -2.00  13.00  29.00  26.00   45.00       
251.00    0.00  13.00  31.00 142.00  149.00       
252.00    2.00  13.00  29.00 115.00  131.00       
253.00   -1.00  14.00  29.00  88.00  104.00       
254.00    1.00  14.00  29.00  27.00   40.00       
255.00    0.00  15.00  29.00  46.00   59.00       
Node - number of items - h - w for each item
    0   0
    1   4    5    7   10    5    8    4    8    3
    2   1    9    3
    3   2    7    7    4    7
    4   4    8   11    7    5    5    3   24    2
    5   4    6   11    5    8   11    5   23    2
    6   2    5    9   12    6
    7   3    5   10    7    7   10    2
    8   1   22    2
    9   4   23    4   11    4   11    3    7    2
   10   5    6   12    7    9    6    8   10    6   20    3
   11   4    6    6    7    4    6    3   11    2
   12   2   23    4    5    3
   13   3    7    3    4    3    8    2
   14   2   17    4    7    3
   15   4    7   11   10    4    9    4   21    3
   16   4    7    6    8    5   18    4    8    3
   17   2    8    8    7    3
   18   4    8   10   23    3   22    2   13    2
   19   3   13    4    9    4   18    2
   20   1    5    3
   21   4    6    5    9    4    5    4    7    3
   22   4    4   10    7    8   11    4    5    4
   23   4    7    5   18    4   10    4    8    3
   24   5    5    9    7    7    5    6   10    5   12    2
   25   4   10    5   10    4    6    3   20    2
   26   5    6    8    4    6    9    5   21    2    7    2
   27   2   12    2   10    2
   28   4   12    6   11    3   10    3    8    3
   29   5    4    6    9    4   21    3    8    3    7    3
   30   4    4    9   14    4    9    4   13    3
   31   5    6   12    8   11   19    4   16    3   16    2
   32   2   23    3   11    2
   33   5   12    6    8    4    7    4   11    3    4    2
   34   5   11    6    7    6    8    4   16    3   11    3
   35   5    6   10    8    8    5    4    5    4   17    3
   36   1    4    4
   37   2    7   10    7    4
   38   5    7    9    7    8   12    3   15    2    4    2
   39   4    5   10    9    4   11    3    7    3
   40   5    5    6   11    5   11    5    8    5   12    4
   41   2    6   10    7    7
   42   1   19    4
   43   1    5    4
   44   2   11    4    8    4
   45   3   11    5    6    3    5    2
   46   3    8    6    7    4    6    4
   47   3    8   11    5    9   11    5
   48   5    8    6    7    6   17    3    7    2    7    2
   49   2    5    5   18    4
   50   2    7    8    4    6
   51   3    9    6    6    6    6    3
   52   2    7    6    6    5
   53   3    4    9    8    4    5    2
   54   4    5    8    9    4    5    4   10    3
   55   2    5    6    8    3
   56   3   10    4   10    4   17    3
   57   2   17    3   10    2
   58   3   12    6   10    4   22    2
   59   5   20    4   10    4   14    3    8    3    8    3
   60   3    6    4    5    4   10    3
   61   1    7    7
   62   4    7    8   12    4    4    3   20    2
   63   3    8    4    7    4   13    3
   64   5   10    6    8    4    7    4    6    4    9    3
   65   3   23    4    9    4    5    4
   66   3    8    6   11    5   12    4
   67   1    9    4
   68   1    8    3
   69   4    5    7    5    7    8    6   12    3
   70   2    8    5    6    5
   71   1    9    6
   72   2    7    8    8    4
   73   2    4   12    8    3
   74   1    5   10
   75   4    6   11    7    9   15    3    6    2
   76   3    5    7    8    6    8    2
   77   1    9    4
   78   1   10    2
   79   3    6   10    7    4    9    2
   80   2   17    3   11    2
   81   3    7    9    5    3   10    2
   82   5    6    7    5    6   18    4    6    2    5    2
   83   5    7    6   11    4    9    4   16    3    9    3
   84   2    7    3    6    3
   85   4    5   11    7    6    9    4    8    2
   86   2    6   10   21    3
   87   4    4    7    7    5    6    5    6    5
   88   1    5    2
   89   2    5    6    9    3
   90   2    7    9   10    3
   91   5    8    6   22    4   11    4   20    3    7    2
   92   1   13    3
   93   2    5    9   18    3
   94   3    8    6    6    4    7    3
   95   5    8   10   12    6   11    4    6    4   13    3
   96   1   11    4
   97   4    5    6   20    4    8    4    6    3
   98   5   10    5   11    3    7    3    5    3    6    2
   99   4    8   11   11    4    7    3    5    2
  100   1    4    9
  101   2   16    3   14    2
  102   2    9    5   12    2
  103   2    6    5    6    3
  104   5    7   12    6   11   12    5   14    2    7    2
  105   5    5    7    8    6   19    3    7    3    8    2
  106   3    8   11    7    7   11    4
  107   3    4    6    5    5    6    3
  108   1   10    2
  109   1   17    3
  110   5    6    5    5    5   11    4   18    3   18    2
  111   4    9    4    9    4   19    3   18    2
  112   2    5    5   20    3
  113   1    5    7
  114   3   11    5   12    3    9    3
  115   4    5    6    4    5    7    3    5    3
  116   5    6    8   17    4    4    3   16    2    7    2
  117   2    8    6    8    4
  118   1    4    2
  119   5    8   12    5    8    7    4    6    3   10    2
  120   3    5    8    9    3    8    3
  121   5   10    4    8    4    9    3    6    3    8    2
  122   2   13    3    8    2
  123   3    8    9    4    9    9    4
  124   4    5   10    8    7   11    5    5    3
  125   5    5   12   12    5   11    5    4    4    5    3
  126   4   12    4    9    4   20    3    5    3
  127   5    6    9    5    7   10    4    5    3   16    2
  128   3    4   12    9    4    6    2
  129   2    7    4    9    3
  130   1    6    9
  131   1    4    7
  132   1   19    2
  133   5    4    6    5    4   18    3    6    3    5    3
  134   4    7   11   11    5    9    4    7    2
  135   4    6    6    9    5    9    4   19    3
  136   1   10    3
  137   5    5    6   20    3   11    3    5    3   20    2
  138   3    8    5    8    3    5    2
  139   4    6   10   14    4   14    3    4    3
  140   4    6    7    7    3    6    3    5    3
  141   5    7   11    7    9    7    9    5    6   14    4
  142   4    4    6    4    5    6    4   21    3
  143   1    6    2
  144   5    5   11    7    4    5    4    5    3    8    2
  145   3    5   12   24    4   17    3
  146   4    5   11    7   10   10    6   20    3
  147   4    4    7    5    5   17    3    6    2
  148   3    9    6    4    3    5    2
  149   4    5    9    7    5    4    4    4    2
  150   1    8    3
  151   1    9    3
  152   2   12    5   15    3
  153   3   13    3    8    3    5    3
  154   3    6    5   10    4    9    4
  155   5    4   11    7   10    7    7    9    6   11    4
  156   2   10    5    7    4
  157   3    4    5   14    4    7    2
  158   4    7    9   10    5    9    3    7    2
  159   2   20    3    5    3
  160   4    7    6    4    4   22    2   11    2
  161   3    8    4    5    4    5    3
  162   1    8    3
  163   3    6    4   13    3   19    2
  164   3    9    3   11    2    9    2
  165   5    7    8    7    6   19    4   17    3   16    3
  166   5    6   10    8    9   10    5   16    2    5    2
  167   2    9    3    9    3
  168   1   19    3
  169   5    6    7    9    5    4    4    6    3    5    3
  170   1   10    4
  171   2    5   11    4    3
  172   5   10    5    8    4   19    3   14    3    4    3
  173   2    8    4   10    3
  174   5    8   11    5   11    9    5   14    3    9    3
  175   3    8    5    7    5    9    4
  176   4    5    9    6    6   12    4   23    2
  177   4    5   12    6    5    5    4    4    4
  178   5    4   10    7    6   11    5    8    4   20    2
  179   4    6   12   11    5   12    4    6    2
  180   3   10    4   13    3    9    3
  181   2    5    9    6    5
  182   2    7    8    8    7
  183   1   18    4
  184   4   16    4   22    3   14    3    6    3
  185   3   16    4    6    4    8    3
  186   1   13    4
  187   3    5    5   18    4    6    3
  188   3    5    4   22    3    5    3
  189   4    5   10    5    9    8    6    6    2
  190   4   16    4    7    4   22    3   19    2
  191   5    5   11    6    6    5    6   24    4    9    2
  192   4   10    5    7    4   24    2    8    2
  193   3    5   11    6    6   12    4
  194   3   10    3    7    3    9    2
  195   3    8    5   18    4    9    2
  196   1   11    3
  197   2    6    5    6    3
  198   1    5    5
  199   3    6    5    7    4    5    3
  200   5    6    5   13    3   10    3    6    3   13    2
  201   1    9    4
  202   4    4   11    6    3    5    3   14    2
  203   4    7   11   14    3   22    2    5    2
  204   1   21    2
  205   4    6    9    5    6    8    4   21    3
  206   4    8    4   17    3   12    3    6    2
  207   1   12    3
  208   5    7    7   21    4   14    3    9    3    7    3
  209   5    5   11    9    3    9    3    8    3    5    3
  210   5    8    3    7    3    6    3    5    3    8    2
  211   5    5    9    7    4    4    4    9    3    6    2
  212   5    6    8   11    4    9    3    6    3    5    3
  213   1    9    4
  214   4    6    7    8    3   12    2    7    2
  215   4    5   12    5    7   14    4    9    4
  216   5    8    8    8    3    7    3   17    2    7    2
  217   3   11    4    7    3    7    2
  218   1   22    4
  219   5    6   10   12    5   13    3   10    3    7    3
  220   5    5    6    6    4   16    3   14    3    4    3
  221   4    4   10    5    9   14    4   19    3
  222   2    8    6    6    3
  223   4    6   11    4    4   12    3    5    2
  224   1   20    2
  225   1    7    7
  226   3   11    5    4    5    4    5
  227   1    5   10
  228   1    8    6
  229   2   11    6    5    4
  230   4    5   11    7    5   14    4    7    4
  231   3    7    4    7    3    4    3
  232   5    5   10    4   10    7    6    4    6    8    4
  233   1    4    6
  234   5    6    9    7    8    6    8    4    7   16    4
  235   3   12    4   10    4   11    2
  236   3    6    6    8    5    5    4
  237   2    8   10   17    4
  238   3    6    4   22    3    6    3
  239   5   10    6   11    5   11    5    6    4   16    3
  240   4    7    7    5    7   15    4   11    4
  241   3    6   11   20    3   21    2
  242   3    8    6    6    3    5    3
  243   4   11    6   11    5   12    3   23    2
  244   5    4    9    7    4    4    4   10    3    6    3
  245   1    4    9
  246   3    6    6   22    2    7    2
  247   1    7    2
  248   3    8   10    6    4   10    2
  249   3    5   12    4   10    9    3
  250   5    7   11    6    8    4    5    8    2    7    2
  251   1   14    2
  252   1   19    2
  253   5    7   12   12    6    7    5    6    3    9    2
  254   4    6    7   12    4    6    4   16    2
  255   3    6    6   24    3    9    2
